3. semestr/výroková logika/ukol1/ukol1/priklad_bipartitnost/1.graph
c A simple graph on 10 vertices - NOT bipartite (see cycle 1 2 7)
p edge 10 11
e 1 2
e 1 6
e 1 7
e 2 7
e 2 10
e 3 7
e 3 8
e 3 9
e 4 8
e 5 9
e 5 10
