3. semestr/výroková logika/ukol1/ukol1/vstupy/1.graph.cnf
p cnf 2505 2125
101 102 103 104 105 0
201 202 203 204 205 0
301 302 303 304 305 0
401 402 403 404 405 0
501 502 503 504 505 0
601 602 603 604 605 0
701 702 703 704 705 0
801 802 803 804 805 0
901 902 903 904 905 0
1001 1002 1003 1004 1005 0
1101 1102 1103 1104 1105 0
1201 1202 1203 1204 1205 0
1301 1302 1303 1304 1305 0
1401 1402 1403 1404 1405 0
1501 1502 1503 1504 1505 0
1601 1602 1603 1604 1605 0
1701 1702 1703 1704 1705 0
1801 1802 1803 1804 1805 0
1901 1902 1903 1904 1905 0
2001 2002 2003 2004 2005 0
2101 2102 2103 2104 2105 0
2201 2202 2203 2204 2205 0
2301 2302 2303 2304 2305 0
2401 2402 2403 2404 2405 0
2501 2502 2503 2504 2505 0
-101 -102 0
-101 -103 0
-101 -104 0
-101 -105 0
-102 -101 0
-102 -103 0
-102 -104 0
-102 -105 0
-103 -101 0
-103 -102 0
-103 -104 0
-103 -105 0
-104 -101 0
-104 -102 0
-104 -103 0
-104 -105 0
-105 -101 0
-105 -102 0
-105 -103 0
-105 -104 0
-201 -202 0
-201 -203 0
-201 -204 0
-201 -205 0
-202 -201 0
-202 -203 0
-202 -204 0
-202 -205 0
-203 -201 0
-203 -202 0
-203 -204 0
-203 -205 0
-204 -201 0
-204 -202 0
-204 -203 0
-204 -205 0
-205 -201 0
-205 -202 0
-205 -203 0
-205 -204 0
-301 -302 0
-301 -303 0
-301 -304 0
-301 -305 0
-302 -301 0
-302 -303 0
-302 -304 0
-302 -305 0
-303 -301 0
-303 -302 0
-303 -304 0
-303 -305 0
-304 -301 0
-304 -302 0
-304 -303 0
-304 -305 0
-305 -301 0
-305 -302 0
-305 -303 0
-305 -304 0
-401 -402 0
-401 -403 0
-401 -404 0
-401 -405 0
-402 -401 0
-402 -403 0
-402 -404 0
-402 -405 0
-403 -401 0
-403 -402 0
-403 -404 0
-403 -405 0
-404 -401 0
-404 -402 0
-404 -403 0
-404 -405 0
-405 -401 0
-405 -402 0
-405 -403 0
-405 -404 0
-501 -502 0
-501 -503 0
-501 -504 0
-501 -505 0
-502 -501 0
-502 -503 0
-502 -504 0
-502 -505 0
-503 -501 0
-503 -502 0
-503 -504 0
-503 -505 0
-504 -501 0
-504 -502 0
-504 -503 0
-504 -505 0
-505 -501 0
-505 -502 0
-505 -503 0
-505 -504 0
-601 -602 0
-601 -603 0
-601 -604 0
-601 -605 0
-602 -601 0
-602 -603 0
-602 -604 0
-602 -605 0
-603 -601 0
-603 -602 0
-603 -604 0
-603 -605 0
-604 -601 0
-604 -602 0
-604 -603 0
-604 -605 0
-605 -601 0
-605 -602 0
-605 -603 0
-605 -604 0
-701 -702 0
-701 -703 0
-701 -704 0
-701 -705 0
-702 -701 0
-702 -703 0
-702 -704 0
-702 -705 0
-703 -701 0
-703 -702 0
-703 -704 0
-703 -705 0
-704 -701 0
-704 -702 0
-704 -703 0
-704 -705 0
-705 -701 0
-705 -702 0
-705 -703 0
-705 -704 0
-801 -802 0
-801 -803 0
-801 -804 0
-801 -805 0
-802 -801 0
-802 -803 0
-802 -804 0
-802 -805 0
-803 -801 0
-803 -802 0
-803 -804 0
-803 -805 0
-804 -801 0
-804 -802 0
-804 -803 0
-804 -805 0
-805 -801 0
-805 -802 0
-805 -803 0
-805 -804 0
-901 -902 0
-901 -903 0
-901 -904 0
-901 -905 0
-902 -901 0
-902 -903 0
-902 -904 0
-902 -905 0
-903 -901 0
-903 -902 0
-903 -904 0
-903 -905 0
-904 -901 0
-904 -902 0
-904 -903 0
-904 -905 0
-905 -901 0
-905 -902 0
-905 -903 0
-905 -904 0
-1001 -1002 0
-1001 -1003 0
-1001 -1004 0
-1001 -1005 0
-1002 -1001 0
-1002 -1003 0
-1002 -1004 0
-1002 -1005 0
-1003 -1001 0
-1003 -1002 0
-1003 -1004 0
-1003 -1005 0
-1004 -1001 0
-1004 -1002 0
-1004 -1003 0
-1004 -1005 0
-1005 -1001 0
-1005 -1002 0
-1005 -1003 0
-1005 -1004 0
-1101 -1102 0
-1101 -1103 0
-1101 -1104 0
-1101 -1105 0
-1102 -1101 0
-1102 -1103 0
-1102 -1104 0
-1102 -1105 0
-1103 -1101 0
-1103 -1102 0
-1103 -1104 0
-1103 -1105 0
-1104 -1101 0
-1104 -1102 0
-1104 -1103 0
-1104 -1105 0
-1105 -1101 0
-1105 -1102 0
-1105 -1103 0
-1105 -1104 0
-1201 -1202 0
-1201 -1203 0
-1201 -1204 0
-1201 -1205 0
-1202 -1201 0
-1202 -1203 0
-1202 -1204 0
-1202 -1205 0
-1203 -1201 0
-1203 -1202 0
-1203 -1204 0
-1203 -1205 0
-1204 -1201 0
-1204 -1202 0
-1204 -1203 0
-1204 -1205 0
-1205 -1201 0
-1205 -1202 0
-1205 -1203 0
-1205 -1204 0
-1301 -1302 0
-1301 -1303 0
-1301 -1304 0
-1301 -1305 0
-1302 -1301 0
-1302 -1303 0
-1302 -1304 0
-1302 -1305 0
-1303 -1301 0
-1303 -1302 0
-1303 -1304 0
-1303 -1305 0
-1304 -1301 0
-1304 -1302 0
-1304 -1303 0
-1304 -1305 0
-1305 -1301 0
-1305 -1302 0
-1305 -1303 0
-1305 -1304 0
-1401 -1402 0
-1401 -1403 0
-1401 -1404 0
-1401 -1405 0
-1402 -1401 0
-1402 -1403 0
-1402 -1404 0
-1402 -1405 0
-1403 -1401 0
-1403 -1402 0
-1403 -1404 0
-1403 -1405 0
-1404 -1401 0
-1404 -1402 0
-1404 -1403 0
-1404 -1405 0
-1405 -1401 0
-1405 -1402 0
-1405 -1403 0
-1405 -1404 0
-1501 -1502 0
-1501 -1503 0
-1501 -1504 0
-1501 -1505 0
-1502 -1501 0
-1502 -1503 0
-1502 -1504 0
-1502 -1505 0
-1503 -1501 0
-1503 -1502 0
-1503 -1504 0
-1503 -1505 0
-1504 -1501 0
-1504 -1502 0
-1504 -1503 0
-1504 -1505 0
-1505 -1501 0
-1505 -1502 0
-1505 -1503 0
-1505 -1504 0
-1601 -1602 0
-1601 -1603 0
-1601 -1604 0
-1601 -1605 0
-1602 -1601 0
-1602 -1603 0
-1602 -1604 0
-1602 -1605 0
-1603 -1601 0
-1603 -1602 0
-1603 -1604 0
-1603 -1605 0
-1604 -1601 0
-1604 -1602 0
-1604 -1603 0
-1604 -1605 0
-1605 -1601 0
-1605 -1602 0
-1605 -1603 0
-1605 -1604 0
-1701 -1702 0
-1701 -1703 0
-1701 -1704 0
-1701 -1705 0
-1702 -1701 0
-1702 -1703 0
-1702 -1704 0
-1702 -1705 0
-1703 -1701 0
-1703 -1702 0
-1703 -1704 0
-1703 -1705 0
-1704 -1701 0
-1704 -1702 0
-1704 -1703 0
-1704 -1705 0
-1705 -1701 0
-1705 -1702 0
-1705 -1703 0
-1705 -1704 0
-1801 -1802 0
-1801 -1803 0
-1801 -1804 0
-1801 -1805 0
-1802 -1801 0
-1802 -1803 0
-1802 -1804 0
-1802 -1805 0
-1803 -1801 0
-1803 -1802 0
-1803 -1804 0
-1803 -1805 0
-1804 -1801 0
-1804 -1802 0
-1804 -1803 0
-1804 -1805 0
-1805 -1801 0
-1805 -1802 0
-1805 -1803 0
-1805 -1804 0
-1901 -1902 0
-1901 -1903 0
-1901 -1904 0
-1901 -1905 0
-1902 -1901 0
-1902 -1903 0
-1902 -1904 0
-1902 -1905 0
-1903 -1901 0
-1903 -1902 0
-1903 -1904 0
-1903 -1905 0
-1904 -1901 0
-1904 -1902 0
-1904 -1903 0
-1904 -1905 0
-1905 -1901 0
-1905 -1902 0
-1905 -1903 0
-1905 -1904 0
-2001 -2002 0
-2001 -2003 0
-2001 -2004 0
-2001 -2005 0
-2002 -2001 0
-2002 -2003 0
-2002 -2004 0
-2002 -2005 0
-2003 -2001 0
-2003 -2002 0
-2003 -2004 0
-2003 -2005 0
-2004 -2001 0
-2004 -2002 0
-2004 -2003 0
-2004 -2005 0
-2005 -2001 0
-2005 -2002 0
-2005 -2003 0
-2005 -2004 0
-2101 -2102 0
-2101 -2103 0
-2101 -2104 0
-2101 -2105 0
-2102 -2101 0
-2102 -2103 0
-2102 -2104 0
-2102 -2105 0
-2103 -2101 0
-2103 -2102 0
-2103 -2104 0
-2103 -2105 0
-2104 -2101 0
-2104 -2102 0
-2104 -2103 0
-2104 -2105 0
-2105 -2101 0
-2105 -2102 0
-2105 -2103 0
-2105 -2104 0
-2201 -2202 0
-2201 -2203 0
-2201 -2204 0
-2201 -2205 0
-2202 -2201 0
-2202 -2203 0
-2202 -2204 0
-2202 -2205 0
-2203 -2201 0
-2203 -2202 0
-2203 -2204 0
-2203 -2205 0
-2204 -2201 0
-2204 -2202 0
-2204 -2203 0
-2204 -2205 0
-2205 -2201 0
-2205 -2202 0
-2205 -2203 0
-2205 -2204 0
-2301 -2302 0
-2301 -2303 0
-2301 -2304 0
-2301 -2305 0
-2302 -2301 0
-2302 -2303 0
-2302 -2304 0
-2302 -2305 0
-2303 -2301 0
-2303 -2302 0
-2303 -2304 0
-2303 -2305 0
-2304 -2301 0
-2304 -2302 0
-2304 -2303 0
-2304 -2305 0
-2305 -2301 0
-2305 -2302 0
-2305 -2303 0
-2305 -2304 0
-2401 -2402 0
-2401 -2403 0
-2401 -2404 0
-2401 -2405 0
-2402 -2401 0
-2402 -2403 0
-2402 -2404 0
-2402 -2405 0
-2403 -2401 0
-2403 -2402 0
-2403 -2404 0
-2403 -2405 0
-2404 -2401 0
-2404 -2402 0
-2404 -2403 0
-2404 -2405 0
-2405 -2401 0
-2405 -2402 0
-2405 -2403 0
-2405 -2404 0
-2501 -2502 0
-2501 -2503 0
-2501 -2504 0
-2501 -2505 0
-2502 -2501 0
-2502 -2503 0
-2502 -2504 0
-2502 -2505 0
-2503 -2501 0
-2503 -2502 0
-2503 -2504 0
-2503 -2505 0
-2504 -2501 0
-2504 -2502 0
-2504 -2503 0
-2504 -2505 0
-2505 -2501 0
-2505 -2502 0
-2505 -2503 0
-2505 -2504 0
-101 -701 0
-101 -1301 0
-101 -1901 0
-101 -2501 0
-101 -201 0
-101 -301 0
-101 -401 0
-101 -501 0
-101 -601 0
-101 -1101 0
-101 -1601 0
-101 -2101 0
-201 -801 0
-201 -1401 0
-201 -2001 0
-201 -601 0
-201 -301 0
-201 -401 0
-201 -501 0
-201 -701 0
-201 -1201 0
-201 -1701 0
-201 -2201 0
-201 -101 0
-301 -901 0
-301 -1501 0
-301 -701 0
-301 -1101 0
-301 -401 0
-301 -501 0
-301 -801 0
-301 -1301 0
-301 -1801 0
-301 -2301 0
-301 -201 0
-301 -101 0
-401 -1001 0
-401 -801 0
-401 -1201 0
-401 -1601 0
-401 -501 0
-401 -901 0
-401 -1401 0
-401 -1901 0
-401 -2401 0
-401 -301 0
-401 -201 0
-401 -101 0
-501 -901 0
-501 -1301 0
-501 -1701 0
-501 -2101 0
-501 -1001 0
-501 -1501 0
-501 -2001 0
-501 -2501 0
-501 -401 0
-501 -301 0
-501 -201 0
-501 -101 0
-601 -1201 0
-601 -1801 0
-601 -2401 0
-601 -701 0
-601 -801 0
-601 -901 0
-601 -1001 0
-601 -1101 0
-601 -1601 0
-601 -2101 0
-601 -201 0
-601 -101 0
-701 -1301 0
-701 -1901 0
-701 -2501 0
-701 -1101 0
-701 -801 0
-701 -901 0
-701 -1001 0
-701 -1201 0
-701 -1701 0
-701 -2201 0
-701 -601 0
-701 -301 0
-701 -201 0
-701 -101 0
-801 -1401 0
-801 -2001 0
-801 -1201 0
-801 -1601 0
-801 -901 0
-801 -1001 0
-801 -1301 0
-801 -1801 0
-801 -2301 0
-801 -701 0
-801 -601 0
-801 -401 0
-801 -301 0
-801 -201 0
-901 -1501 0
-901 -1301 0
-901 -1701 0
-901 -2101 0
-901 -1001 0
-901 -1401 0
-901 -1901 0
-901 -2401 0
-901 -801 0
-901 -701 0
-901 -601 0
-901 -501 0
-901 -401 0
-901 -301 0
-1001 -1401 0
-1001 -1801 0
-1001 -2201 0
-1001 -1501 0
-1001 -2001 0
-1001 -2501 0
-1001 -901 0
-1001 -801 0
-1001 -701 0
-1001 -601 0
-1001 -501 0
-1001 -401 0
-1101 -1701 0
-1101 -2301 0
-1101 -1201 0
-1101 -1301 0
-1101 -1401 0
-1101 -1501 0
-1101 -1601 0
-1101 -2101 0
-1101 -701 0
-1101 -601 0
-1101 -301 0
-1101 -101 0
-1201 -1801 0
-1201 -2401 0
-1201 -1601 0
-1201 -1301 0
-1201 -1401 0
-1201 -1501 0
-1201 -1701 0
-1201 -2201 0
-1201 -1101 0
-1201 -801 0
-1201 -701 0
-1201 -601 0
-1201 -401 0
-1201 -201 0
-1301 -1901 0
-1301 -2501 0
-1301 -1701 0
-1301 -2101 0
-1301 -1401 0
-1301 -1501 0
-1301 -1801 0
-1301 -2301 0
-1301 -1201 0
-1301 -1101 0
-1301 -901 0
-1301 -801 0
-1301 -701 0
-1301 -501 0
-1301 -301 0
-1301 -101 0
-1401 -2001 0
-1401 -1801 0
-1401 -2201 0
-1401 -1501 0
-1401 -1901 0
-1401 -2401 0
-1401 -1301 0
-1401 -1201 0
-1401 -1101 0
-1401 -1001 0
-1401 -901 0
-1401 -801 0
-1401 -401 0
-1401 -201 0
-1501 -1901 0
-1501 -2301 0
-1501 -2001 0
-1501 -2501 0
-1501 -1401 0
-1501 -1301 0
-1501 -1201 0
-1501 -1101 0
-1501 -1001 0
-1501 -901 0
-1501 -501 0
-1501 -301 0
-1601 -2201 0
-1601 -1701 0
-1601 -1801 0
-1601 -1901 0
-1601 -2001 0
-1601 -2101 0
-1601 -1201 0
-1601 -1101 0
-1601 -801 0
-1601 -601 0
-1601 -401 0
-1601 -101 0
-1701 -2301 0
-1701 -2101 0
-1701 -1801 0
-1701 -1901 0
-1701 -2001 0
-1701 -2201 0
-1701 -1601 0
-1701 -1301 0
-1701 -1201 0
-1701 -1101 0
-1701 -901 0
-1701 -701 0
-1701 -501 0
-1701 -201 0
-1801 -2401 0
-1801 -2201 0
-1801 -1901 0
-1801 -2001 0
-1801 -2301 0
-1801 -1701 0
-1801 -1601 0
-1801 -1401 0
-1801 -1301 0
-1801 -1201 0
-1801 -1001 0
-1801 -801 0
-1801 -601 0
-1801 -301 0
-1901 -2501 0
-1901 -2301 0
-1901 -2001 0
-1901 -2401 0
-1901 -1801 0
-1901 -1701 0
-1901 -1601 0
-1901 -1501 0
-1901 -1401 0
-1901 -1301 0
-1901 -901 0
-1901 -701 0
-1901 -401 0
-1901 -101 0
-2001 -2401 0
-2001 -2501 0
-2001 -1901 0
-2001 -1801 0
-2001 -1701 0
-2001 -1601 0
-2001 -1501 0
-2001 -1401 0
-2001 -1001 0
-2001 -801 0
-2001 -501 0
-2001 -201 0
-2101 -2201 0
-2101 -2301 0
-2101 -2401 0
-2101 -2501 0
-2101 -1701 0
-2101 -1601 0
-2101 -1301 0
-2101 -1101 0
-2101 -901 0
-2101 -601 0
-2101 -501 0
-2101 -101 0
-2201 -2301 0
-2201 -2401 0
-2201 -2501 0
-2201 -2101 0
-2201 -1801 0
-2201 -1701 0
-2201 -1601 0
-2201 -1401 0
-2201 -1201 0
-2201 -1001 0
-2201 -701 0
-2201 -201 0
-2301 -2401 0
-2301 -2501 0
-2301 -2201 0
-2301 -2101 0
-2301 -1901 0
-2301 -1801 0
-2301 -1701 0
-2301 -1501 0
-2301 -1301 0
-2301 -1101 0
-2301 -801 0
-2301 -301 0
-2401 -2501 0
-2401 -2301 0
-2401 -2201 0
-2401 -2101 0
-2401 -2001 0
-2401 -1901 0
-2401 -1801 0
-2401 -1401 0
-2401 -1201 0
-2401 -901 0
-2401 -601 0
-2401 -401 0
-2501 -2401 0
-2501 -2301 0
-2501 -2201 0
-2501 -2101 0
-2501 -2001 0
-2501 -1901 0
-2501 -1501 0
-2501 -1301 0
-2501 -1001 0
-2501 -701 0
-2501 -501 0
-2501 -101 0
-102 -702 0
-102 -1302 0
-102 -1902 0
-102 -2502 0
-102 -202 0
-102 -302 0
-102 -402 0
-102 -502 0
-102 -602 0
-102 -1102 0
-102 -1602 0
-102 -2102 0
-202 -802 0
-202 -1402 0
-202 -2002 0
-202 -602 0
-202 -302 0
-202 -402 0
-202 -502 0
-202 -702 0
-202 -1202 0
-202 -1702 0
-202 -2202 0
-202 -102 0
-302 -902 0
-302 -1502 0
-302 -702 0
-302 -1102 0
-302 -402 0
-302 -502 0
-302 -802 0
-302 -1302 0
-302 -1802 0
-302 -2302 0
-302 -202 0
-302 -102 0
-402 -1002 0
-402 -802 0
-402 -1202 0
-402 -1602 0
-402 -502 0
-402 -902 0
-402 -1402 0
-402 -1902 0
-402 -2402 0
-402 -302 0
-402 -202 0
-402 -102 0
-502 -902 0
-502 -1302 0
-502 -1702 0
-502 -2102 0
-502 -1002 0
-502 -1502 0
-502 -2002 0
-502 -2502 0
-502 -402 0
-502 -302 0
-502 -202 0
-502 -102 0
-602 -1202 0
-602 -1802 0
-602 -2402 0
-602 -702 0
-602 -802 0
-602 -902 0
-602 -1002 0
-602 -1102 0
-602 -1602 0
-602 -2102 0
-602 -202 0
-602 -102 0
-702 -1302 0
-702 -1902 0
-702 -2502 0
-702 -1102 0
-702 -802 0
-702 -902 0
-702 -1002 0
-702 -1202 0
-702 -1702 0
-702 -2202 0
-702 -602 0
-702 -302 0
-702 -202 0
-702 -102 0
-802 -1402 0
-802 -2002 0
-802 -1202 0
-802 -1602 0
-802 -902 0
-802 -1002 0
-802 -1302 0
-802 -1802 0
-802 -2302 0
-802 -702 0
-802 -602 0
-802 -402 0
-802 -302 0
-802 -202 0
-902 -1502 0
-902 -1302 0
-902 -1702 0
-902 -2102 0
-902 -1002 0
-902 -1402 0
-902 -1902 0
-902 -2402 0
-902 -802 0
-902 -702 0
-902 -602 0
-902 -502 0
-902 -402 0
-902 -302 0
-1002 -1402 0
-1002 -1802 0
-1002 -2202 0
-1002 -1502 0
-1002 -2002 0
-1002 -2502 0
-1002 -902 0
-1002 -802 0
-1002 -702 0
-1002 -602 0
-1002 -502 0
-1002 -402 0
-1102 -1702 0
-1102 -2302 0
-1102 -1202 0
-1102 -1302 0
-1102 -1402 0
-1102 -1502 0
-1102 -1602 0
-1102 -2102 0
-1102 -702 0
-1102 -602 0
-1102 -302 0
-1102 -102 0
-1202 -1802 0
-1202 -2402 0
-1202 -1602 0
-1202 -1302 0
-1202 -1402 0
-1202 -1502 0
-1202 -1702 0
-1202 -2202 0
-1202 -1102 0
-1202 -802 0
-1202 -702 0
-1202 -602 0
-1202 -402 0
-1202 -202 0
-1302 -1902 0
-1302 -2502 0
-1302 -1702 0
-1302 -2102 0
-1302 -1402 0
-1302 -1502 0
-1302 -1802 0
-1302 -2302 0
-1302 -1202 0
-1302 -1102 0
-1302 -902 0
-1302 -802 0
-1302 -702 0
-1302 -502 0
-1302 -302 0
-1302 -102 0
-1402 -2002 0
-1402 -1802 0
-1402 -2202 0
-1402 -1502 0
-1402 -1902 0
-1402 -2402 0
-1402 -1302 0
-1402 -1202 0
-1402 -1102 0
-1402 -1002 0
-1402 -902 0
-1402 -802 0
-1402 -402 0
-1402 -202 0
-1502 -1902 0
-1502 -2302 0
-1502 -2002 0
-1502 -2502 0
-1502 -1402 0
-1502 -1302 0
-1502 -1202 0
-1502 -1102 0
-1502 -1002 0
-1502 -902 0
-1502 -502 0
-1502 -302 0
-1602 -2202 0
-1602 -1702 0
-1602 -1802 0
-1602 -1902 0
-1602 -2002 0
-1602 -2102 0
-1602 -1202 0
-1602 -1102 0
-1602 -802 0
-1602 -602 0
-1602 -402 0
-1602 -102 0
-1702 -2302 0
-1702 -2102 0
-1702 -1802 0
-1702 -1902 0
-1702 -2002 0
-1702 -2202 0
-1702 -1602 0
-1702 -1302 0
-1702 -1202 0
-1702 -1102 0
-1702 -902 0
-1702 -702 0
-1702 -502 0
-1702 -202 0
-1802 -2402 0
-1802 -2202 0
-1802 -1902 0
-1802 -2002 0
-1802 -2302 0
-1802 -1702 0
-1802 -1602 0
-1802 -1402 0
-1802 -1302 0
-1802 -1202 0
-1802 -1002 0
-1802 -802 0
-1802 -602 0
-1802 -302 0
-1902 -2502 0
-1902 -2302 0
-1902 -2002 0
-1902 -2402 0
-1902 -1802 0
-1902 -1702 0
-1902 -1602 0
-1902 -1502 0
-1902 -1402 0
-1902 -1302 0
-1902 -902 0
-1902 -702 0
-1902 -402 0
-1902 -102 0
-2002 -2402 0
-2002 -2502 0
-2002 -1902 0
-2002 -1802 0
-2002 -1702 0
-2002 -1602 0
-2002 -1502 0
-2002 -1402 0
-2002 -1002 0
-2002 -802 0
-2002 -502 0
-2002 -202 0
-2102 -2202 0
-2102 -2302 0
-2102 -2402 0
-2102 -2502 0
-2102 -1702 0
-2102 -1602 0
-2102 -1302 0
-2102 -1102 0
-2102 -902 0
-2102 -602 0
-2102 -502 0
-2102 -102 0
-2202 -2302 0
-2202 -2402 0
-2202 -2502 0
-2202 -2102 0
-2202 -1802 0
-2202 -1702 0
-2202 -1602 0
-2202 -1402 0
-2202 -1202 0
-2202 -1002 0
-2202 -702 0
-2202 -202 0
-2302 -2402 0
-2302 -2502 0
-2302 -2202 0
-2302 -2102 0
-2302 -1902 0
-2302 -1802 0
-2302 -1702 0
-2302 -1502 0
-2302 -1302 0
-2302 -1102 0
-2302 -802 0
-2302 -302 0
-2402 -2502 0
-2402 -2302 0
-2402 -2202 0
-2402 -2102 0
-2402 -2002 0
-2402 -1902 0
-2402 -1802 0
-2402 -1402 0
-2402 -1202 0
-2402 -902 0
-2402 -602 0
-2402 -402 0
-2502 -2402 0
-2502 -2302 0
-2502 -2202 0
-2502 -2102 0
-2502 -2002 0
-2502 -1902 0
-2502 -1502 0
-2502 -1302 0
-2502 -1002 0
-2502 -702 0
-2502 -502 0
-2502 -102 0
-103 -703 0
-103 -1303 0
-103 -1903 0
-103 -2503 0
-103 -203 0
-103 -303 0
-103 -403 0
-103 -503 0
-103 -603 0
-103 -1103 0
-103 -1603 0
-103 -2103 0
-203 -803 0
-203 -1403 0
-203 -2003 0
-203 -603 0
-203 -303 0
-203 -403 0
-203 -503 0
-203 -703 0
-203 -1203 0
-203 -1703 0
-203 -2203 0
-203 -103 0
-303 -903 0
-303 -1503 0
-303 -703 0
-303 -1103 0
-303 -403 0
-303 -503 0
-303 -803 0
-303 -1303 0
-303 -1803 0
-303 -2303 0
-303 -203 0
-303 -103 0
-403 -1003 0
-403 -803 0
-403 -1203 0
-403 -1603 0
-403 -503 0
-403 -903 0
-403 -1403 0
-403 -1903 0
-403 -2403 0
-403 -303 0
-403 -203 0
-403 -103 0
-503 -903 0
-503 -1303 0
-503 -1703 0
-503 -2103 0
-503 -1003 0
-503 -1503 0
-503 -2003 0
-503 -2503 0
-503 -403 0
-503 -303 0
-503 -203 0
-503 -103 0
-603 -1203 0
-603 -1803 0
-603 -2403 0
-603 -703 0
-603 -803 0
-603 -903 0
-603 -1003 0
-603 -1103 0
-603 -1603 0
-603 -2103 0
-603 -203 0
-603 -103 0
-703 -1303 0
-703 -1903 0
-703 -2503 0
-703 -1103 0
-703 -803 0
-703 -903 0
-703 -1003 0
-703 -1203 0
-703 -1703 0
-703 -2203 0
-703 -603 0
-703 -303 0
-703 -203 0
-703 -103 0
-803 -1403 0
-803 -2003 0
-803 -1203 0
-803 -1603 0
-803 -903 0
-803 -1003 0
-803 -1303 0
-803 -1803 0
-803 -2303 0
-803 -703 0
-803 -603 0
-803 -403 0
-803 -303 0
-803 -203 0
-903 -1503 0
-903 -1303 0
-903 -1703 0
-903 -2103 0
-903 -1003 0
-903 -1403 0
-903 -1903 0
-903 -2403 0
-903 -803 0
-903 -703 0
-903 -603 0
-903 -503 0
-903 -403 0
-903 -303 0
-1003 -1403 0
-1003 -1803 0
-1003 -2203 0
-1003 -1503 0
-1003 -2003 0
-1003 -2503 0
-1003 -903 0
-1003 -803 0
-1003 -703 0
-1003 -603 0
-1003 -503 0
-1003 -403 0
-1103 -1703 0
-1103 -2303 0
-1103 -1203 0
-1103 -1303 0
-1103 -1403 0
-1103 -1503 0
-1103 -1603 0
-1103 -2103 0
-1103 -703 0
-1103 -603 0
-1103 -303 0
-1103 -103 0
-1203 -1803 0
-1203 -2403 0
-1203 -1603 0
-1203 -1303 0
-1203 -1403 0
-1203 -1503 0
-1203 -1703 0
-1203 -2203 0
-1203 -1103 0
-1203 -803 0
-1203 -703 0
-1203 -603 0
-1203 -403 0
-1203 -203 0
-1303 -1903 0
-1303 -2503 0
-1303 -1703 0
-1303 -2103 0
-1303 -1403 0
-1303 -1503 0
-1303 -1803 0
-1303 -2303 0
-1303 -1203 0
-1303 -1103 0
-1303 -903 0
-1303 -803 0
-1303 -703 0
-1303 -503 0
-1303 -303 0
-1303 -103 0
-1403 -2003 0
-1403 -1803 0
-1403 -2203 0
-1403 -1503 0
-1403 -1903 0
-1403 -2403 0
-1403 -1303 0
-1403 -1203 0
-1403 -1103 0
-1403 -1003 0
-1403 -903 0
-1403 -803 0
-1403 -403 0
-1403 -203 0
-1503 -1903 0
-1503 -2303 0
-1503 -2003 0
-1503 -2503 0
-1503 -1403 0
-1503 -1303 0
-1503 -1203 0
-1503 -1103 0
-1503 -1003 0
-1503 -903 0
-1503 -503 0
-1503 -303 0
-1603 -2203 0
-1603 -1703 0
-1603 -1803 0
-1603 -1903 0
-1603 -2003 0
-1603 -2103 0
-1603 -1203 0
-1603 -1103 0
-1603 -803 0
-1603 -603 0
-1603 -403 0
-1603 -103 0
-1703 -2303 0
-1703 -2103 0
-1703 -1803 0
-1703 -1903 0
-1703 -2003 0
-1703 -2203 0
-1703 -1603 0
-1703 -1303 0
-1703 -1203 0
-1703 -1103 0
-1703 -903 0
-1703 -703 0
-1703 -503 0
-1703 -203 0
-1803 -2403 0
-1803 -2203 0
-1803 -1903 0
-1803 -2003 0
-1803 -2303 0
-1803 -1703 0
-1803 -1603 0
-1803 -1403 0
-1803 -1303 0
-1803 -1203 0
-1803 -1003 0
-1803 -803 0
-1803 -603 0
-1803 -303 0
-1903 -2503 0
-1903 -2303 0
-1903 -2003 0
-1903 -2403 0
-1903 -1803 0
-1903 -1703 0
-1903 -1603 0
-1903 -1503 0
-1903 -1403 0
-1903 -1303 0
-1903 -903 0
-1903 -703 0
-1903 -403 0
-1903 -103 0
-2003 -2403 0
-2003 -2503 0
-2003 -1903 0
-2003 -1803 0
-2003 -1703 0
-2003 -1603 0
-2003 -1503 0
-2003 -1403 0
-2003 -1003 0
-2003 -803 0
-2003 -503 0
-2003 -203 0
-2103 -2203 0
-2103 -2303 0
-2103 -2403 0
-2103 -2503 0
-2103 -1703 0
-2103 -1603 0
-2103 -1303 0
-2103 -1103 0
-2103 -903 0
-2103 -603 0
-2103 -503 0
-2103 -103 0
-2203 -2303 0
-2203 -2403 0
-2203 -2503 0
-2203 -2103 0
-2203 -1803 0
-2203 -1703 0
-2203 -1603 0
-2203 -1403 0
-2203 -1203 0
-2203 -1003 0
-2203 -703 0
-2203 -203 0
-2303 -2403 0
-2303 -2503 0
-2303 -2203 0
-2303 -2103 0
-2303 -1903 0
-2303 -1803 0
-2303 -1703 0
-2303 -1503 0
-2303 -1303 0
-2303 -1103 0
-2303 -803 0
-2303 -303 0
-2403 -2503 0
-2403 -2303 0
-2403 -2203 0
-2403 -2103 0
-2403 -2003 0
-2403 -1903 0
-2403 -1803 0
-2403 -1403 0
-2403 -1203 0
-2403 -903 0
-2403 -603 0
-2403 -403 0
-2503 -2403 0
-2503 -2303 0
-2503 -2203 0
-2503 -2103 0
-2503 -2003 0
-2503 -1903 0
-2503 -1503 0
-2503 -1303 0
-2503 -1003 0
-2503 -703 0
-2503 -503 0
-2503 -103 0
-104 -704 0
-104 -1304 0
-104 -1904 0
-104 -2504 0
-104 -204 0
-104 -304 0
-104 -404 0
-104 -504 0
-104 -604 0
-104 -1104 0
-104 -1604 0
-104 -2104 0
-204 -804 0
-204 -1404 0
-204 -2004 0
-204 -604 0
-204 -304 0
-204 -404 0
-204 -504 0
-204 -704 0
-204 -1204 0
-204 -1704 0
-204 -2204 0
-204 -104 0
-304 -904 0
-304 -1504 0
-304 -704 0
-304 -1104 0
-304 -404 0
-304 -504 0
-304 -804 0
-304 -1304 0
-304 -1804 0
-304 -2304 0
-304 -204 0
-304 -104 0
-404 -1004 0
-404 -804 0
-404 -1204 0
-404 -1604 0
-404 -504 0
-404 -904 0
-404 -1404 0
-404 -1904 0
-404 -2404 0
-404 -304 0
-404 -204 0
-404 -104 0
-504 -904 0
-504 -1304 0
-504 -1704 0
-504 -2104 0
-504 -1004 0
-504 -1504 0
-504 -2004 0
-504 -2504 0
-504 -404 0
-504 -304 0
-504 -204 0
-504 -104 0
-604 -1204 0
-604 -1804 0
-604 -2404 0
-604 -704 0
-604 -804 0
-604 -904 0
-604 -1004 0
-604 -1104 0
-604 -1604 0
-604 -2104 0
-604 -204 0
-604 -104 0
-704 -1304 0
-704 -1904 0
-704 -2504 0
-704 -1104 0
-704 -804 0
-704 -904 0
-704 -1004 0
-704 -1204 0
-704 -1704 0
-704 -2204 0
-704 -604 0
-704 -304 0
-704 -204 0
-704 -104 0
-804 -1404 0
-804 -2004 0
-804 -1204 0
-804 -1604 0
-804 -904 0
-804 -1004 0
-804 -1304 0
-804 -1804 0
-804 -2304 0
-804 -704 0
-804 -604 0
-804 -404 0
-804 -304 0
-804 -204 0
-904 -1504 0
-904 -1304 0
-904 -1704 0
-904 -2104 0
-904 -1004 0
-904 -1404 0
-904 -1904 0
-904 -2404 0
-904 -804 0
-904 -704 0
-904 -604 0
-904 -504 0
-904 -404 0
-904 -304 0
-1004 -1404 0
-1004 -1804 0
-1004 -2204 0
-1004 -1504 0
-1004 -2004 0
-1004 -2504 0
-1004 -904 0
-1004 -804 0
-1004 -704 0
-1004 -604 0
-1004 -504 0
-1004 -404 0
-1104 -1704 0
-1104 -2304 0
-1104 -1204 0
-1104 -1304 0
-1104 -1404 0
-1104 -1504 0
-1104 -1604 0
-1104 -2104 0
-1104 -704 0
-1104 -604 0
-1104 -304 0
-1104 -104 0
-1204 -1804 0
-1204 -2404 0
-1204 -1604 0
-1204 -1304 0
-1204 -1404 0
-1204 -1504 0
-1204 -1704 0
-1204 -2204 0
-1204 -1104 0
-1204 -804 0
-1204 -704 0
-1204 -604 0
-1204 -404 0
-1204 -204 0
-1304 -1904 0
-1304 -2504 0
-1304 -1704 0
-1304 -2104 0
-1304 -1404 0
-1304 -1504 0
-1304 -1804 0
-1304 -2304 0
-1304 -1204 0
-1304 -1104 0
-1304 -904 0
-1304 -804 0
-1304 -704 0
-1304 -504 0
-1304 -304 0
-1304 -104 0
-1404 -2004 0
-1404 -1804 0
-1404 -2204 0
-1404 -1504 0
-1404 -1904 0
-1404 -2404 0
-1404 -1304 0
-1404 -1204 0
-1404 -1104 0
-1404 -1004 0
-1404 -904 0
-1404 -804 0
-1404 -404 0
-1404 -204 0
-1504 -1904 0
-1504 -2304 0
-1504 -2004 0
-1504 -2504 0
-1504 -1404 0
-1504 -1304 0
-1504 -1204 0
-1504 -1104 0
-1504 -1004 0
-1504 -904 0
-1504 -504 0
-1504 -304 0
-1604 -2204 0
-1604 -1704 0
-1604 -1804 0
-1604 -1904 0
-1604 -2004 0
-1604 -2104 0
-1604 -1204 0
-1604 -1104 0
-1604 -804 0
-1604 -604 0
-1604 -404 0
-1604 -104 0
-1704 -2304 0
-1704 -2104 0
-1704 -1804 0
-1704 -1904 0
-1704 -2004 0
-1704 -2204 0
-1704 -1604 0
-1704 -1304 0
-1704 -1204 0
-1704 -1104 0
-1704 -904 0
-1704 -704 0
-1704 -504 0
-1704 -204 0
-1804 -2404 0
-1804 -2204 0
-1804 -1904 0
-1804 -2004 0
-1804 -2304 0
-1804 -1704 0
-1804 -1604 0
-1804 -1404 0
-1804 -1304 0
-1804 -1204 0
-1804 -1004 0
-1804 -804 0
-1804 -604 0
-1804 -304 0
-1904 -2504 0
-1904 -2304 0
-1904 -2004 0
-1904 -2404 0
-1904 -1804 0
-1904 -1704 0
-1904 -1604 0
-1904 -1504 0
-1904 -1404 0
-1904 -1304 0
-1904 -904 0
-1904 -704 0
-1904 -404 0
-1904 -104 0
-2004 -2404 0
-2004 -2504 0
-2004 -1904 0
-2004 -1804 0
-2004 -1704 0
-2004 -1604 0
-2004 -1504 0
-2004 -1404 0
-2004 -1004 0
-2004 -804 0
-2004 -504 0
-2004 -204 0
-2104 -2204 0
-2104 -2304 0
-2104 -2404 0
-2104 -2504 0
-2104 -1704 0
-2104 -1604 0
-2104 -1304 0
-2104 -1104 0
-2104 -904 0
-2104 -604 0
-2104 -504 0
-2104 -104 0
-2204 -2304 0
-2204 -2404 0
-2204 -2504 0
-2204 -2104 0
-2204 -1804 0
-2204 -1704 0
-2204 -1604 0
-2204 -1404 0
-2204 -1204 0
-2204 -1004 0
-2204 -704 0
-2204 -204 0
-2304 -2404 0
-2304 -2504 0
-2304 -2204 0
-2304 -2104 0
-2304 -1904 0
-2304 -1804 0
-2304 -1704 0
-2304 -1504 0
-2304 -1304 0
-2304 -1104 0
-2304 -804 0
-2304 -304 0
-2404 -2504 0
-2404 -2304 0
-2404 -2204 0
-2404 -2104 0
-2404 -2004 0
-2404 -1904 0
-2404 -1804 0
-2404 -1404 0
-2404 -1204 0
-2404 -904 0
-2404 -604 0
-2404 -404 0
-2504 -2404 0
-2504 -2304 0
-2504 -2204 0
-2504 -2104 0
-2504 -2004 0
-2504 -1904 0
-2504 -1504 0
-2504 -1304 0
-2504 -1004 0
-2504 -704 0
-2504 -504 0
-2504 -104 0
-105 -705 0
-105 -1305 0
-105 -1905 0
-105 -2505 0
-105 -205 0
-105 -305 0
-105 -405 0
-105 -505 0
-105 -605 0
-105 -1105 0
-105 -1605 0
-105 -2105 0
-205 -805 0
-205 -1405 0
-205 -2005 0
-205 -605 0
-205 -305 0
-205 -405 0
-205 -505 0
-205 -705 0
-205 -1205 0
-205 -1705 0
-205 -2205 0
-205 -105 0
-305 -905 0
-305 -1505 0
-305 -705 0
-305 -1105 0
-305 -405 0
-305 -505 0
-305 -805 0
-305 -1305 0
-305 -1805 0
-305 -2305 0
-305 -205 0
-305 -105 0
-405 -1005 0
-405 -805 0
-405 -1205 0
-405 -1605 0
-405 -505 0
-405 -905 0
-405 -1405 0
-405 -1905 0
-405 -2405 0
-405 -305 0
-405 -205 0
-405 -105 0
-505 -905 0
-505 -1305 0
-505 -1705 0
-505 -2105 0
-505 -1005 0
-505 -1505 0
-505 -2005 0
-505 -2505 0
-505 -405 0
-505 -305 0
-505 -205 0
-505 -105 0
-605 -1205 0
-605 -1805 0
-605 -2405 0
-605 -705 0
-605 -805 0
-605 -905 0
-605 -1005 0
-605 -1105 0
-605 -1605 0
-605 -2105 0
-605 -205 0
-605 -105 0
-705 -1305 0
-705 -1905 0
-705 -2505 0
-705 -1105 0
-705 -805 0
-705 -905 0
-705 -1005 0
-705 -1205 0
-705 -1705 0
-705 -2205 0
-705 -605 0
-705 -305 0
-705 -205 0
-705 -105 0
-805 -1405 0
-805 -2005 0
-805 -1205 0
-805 -1605 0
-805 -905 0
-805 -1005 0
-805 -1305 0
-805 -1805 0
-805 -2305 0
-805 -705 0
-805 -605 0
-805 -405 0
-805 -305 0
-805 -205 0
-905 -1505 0
-905 -1305 0
-905 -1705 0
-905 -2105 0
-905 -1005 0
-905 -1405 0
-905 -1905 0
-905 -2405 0
-905 -805 0
-905 -705 0
-905 -605 0
-905 -505 0
-905 -405 0
-905 -305 0
-1005 -1405 0
-1005 -1805 0
-1005 -2205 0
-1005 -1505 0
-1005 -2005 0
-1005 -2505 0
-1005 -905 0
-1005 -805 0
-1005 -705 0
-1005 -605 0
-1005 -505 0
-1005 -405 0
-1105 -1705 0
-1105 -2305 0
-1105 -1205 0
-1105 -1305 0
-1105 -1405 0
-1105 -1505 0
-1105 -1605 0
-1105 -2105 0
-1105 -705 0
-1105 -605 0
-1105 -305 0
-1105 -105 0
-1205 -1805 0
-1205 -2405 0
-1205 -1605 0
-1205 -1305 0
-1205 -1405 0
-1205 -1505 0
-1205 -1705 0
-1205 -2205 0
-1205 -1105 0
-1205 -805 0
-1205 -705 0
-1205 -605 0
-1205 -405 0
-1205 -205 0
-1305 -1905 0
-1305 -2505 0
-1305 -1705 0
-1305 -2105 0
-1305 -1405 0
-1305 -1505 0
-1305 -1805 0
-1305 -2305 0
-1305 -1205 0
-1305 -1105 0
-1305 -905 0
-1305 -805 0
-1305 -705 0
-1305 -505 0
-1305 -305 0
-1305 -105 0
-1405 -2005 0
-1405 -1805 0
-1405 -2205 0
-1405 -1505 0
-1405 -1905 0
-1405 -2405 0
-1405 -1305 0
-1405 -1205 0
-1405 -1105 0
-1405 -1005 0
-1405 -905 0
-1405 -805 0
-1405 -405 0
-1405 -205 0
-1505 -1905 0
-1505 -2305 0
-1505 -2005 0
-1505 -2505 0
-1505 -1405 0
-1505 -1305 0
-1505 -1205 0
-1505 -1105 0
-1505 -1005 0
-1505 -905 0
-1505 -505 0
-1505 -305 0
-1605 -2205 0
-1605 -1705 0
-1605 -1805 0
-1605 -1905 0
-1605 -2005 0
-1605 -2105 0
-1605 -1205 0
-1605 -1105 0
-1605 -805 0
-1605 -605 0
-1605 -405 0
-1605 -105 0
-1705 -2305 0
-1705 -2105 0
-1705 -1805 0
-1705 -1905 0
-1705 -2005 0
-1705 -2205 0
-1705 -1605 0
-1705 -1305 0
-1705 -1205 0
-1705 -1105 0
-1705 -905 0
-1705 -705 0
-1705 -505 0
-1705 -205 0
-1805 -2405 0
-1805 -2205 0
-1805 -1905 0
-1805 -2005 0
-1805 -2305 0
-1805 -1705 0
-1805 -1605 0
-1805 -1405 0
-1805 -1305 0
-1805 -1205 0
-1805 -1005 0
-1805 -805 0
-1805 -605 0
-1805 -305 0
-1905 -2505 0
-1905 -2305 0
-1905 -2005 0
-1905 -2405 0
-1905 -1805 0
-1905 -1705 0
-1905 -1605 0
-1905 -1505 0
-1905 -1405 0
-1905 -1305 0
-1905 -905 0
-1905 -705 0
-1905 -405 0
-1905 -105 0
-2005 -2405 0
-2005 -2505 0
-2005 -1905 0
-2005 -1805 0
-2005 -1705 0
-2005 -1605 0
-2005 -1505 0
-2005 -1405 0
-2005 -1005 0
-2005 -805 0
-2005 -505 0
-2005 -205 0
-2105 -2205 0
-2105 -2305 0
-2105 -2405 0
-2105 -2505 0
-2105 -1705 0
-2105 -1605 0
-2105 -1305 0
-2105 -1105 0
-2105 -905 0
-2105 -605 0
-2105 -505 0
-2105 -105 0
-2205 -2305 0
-2205 -2405 0
-2205 -2505 0
-2205 -2105 0
-2205 -1805 0
-2205 -1705 0
-2205 -1605 0
-2205 -1405 0
-2205 -1205 0
-2205 -1005 0
-2205 -705 0
-2205 -205 0
-2305 -2405 0
-2305 -2505 0
-2305 -2205 0
-2305 -2105 0
-2305 -1905 0
-2305 -1805 0
-2305 -1705 0
-2305 -1505 0
-2305 -1305 0
-2305 -1105 0
-2305 -805 0
-2305 -305 0
-2405 -2505 0
-2405 -2305 0
-2405 -2205 0
-2405 -2105 0
-2405 -2005 0
-2405 -1905 0
-2405 -1805 0
-2405 -1405 0
-2405 -1205 0
-2405 -905 0
-2405 -605 0
-2405 -405 0
-2505 -2405 0
-2505 -2305 0
-2505 -2205 0
-2505 -2105 0
-2505 -2005 0
-2505 -1905 0
-2505 -1505 0
-2505 -1305 0
-2505 -1005 0
-2505 -705 0
-2505 -505 0
-2505 -105 0